\ Model sp_11_8
\ LP format - for model browsing. Use MPS format to capture full model detail.
\ Signature: 0xb050d3b5baabe1c8
Minimize
  49.98 y[0,1] + 62.77 y[0,2] + 64.07 y[0,3] + 31.89 y[0,4] + 7.81 y[0,5]
   + 62.68 y[0,6] + 25.3 y[0,7] + 45.12 y[0,8] + 51.97 y[0,9]
   + 23.77 y[0,10] + 49.98 y[1,0] + 16.55 y[1,2] + 22.02 y[1,3]
   + 46.53 y[1,5] + 18.68 y[1,6] + 45.8 y[1,8] + 50.25 y[1,9]
   + 53.34 y[1,10] + 62.77 y[2,0] + 16.55 y[2,1] + 30.68 y[2,3]
   + 60.61 y[2,5] + 3.61 y[2,6] + 45.61 y[2,8] + 47.93 y[2,9]
   + 60.67 y[2,10] + 64.07 y[3,0] + 22.02 y[3,1] + 30.68 y[3,2]
   + 58.55 y[3,5] + 34.18 y[3,6] + 67.8 y[3,8] + 31.89 y[4,0] + 39.7 y[4,5]
   + 29 y[4,7] + 41.05 y[4,8] + 45.34 y[4,9] + 18.11 y[4,10] + 7.81 y[5,0]
   + 46.53 y[5,1] + 60.61 y[5,2] + 58.55 y[5,3] + 39.7 y[5,4]
   + 60.96 y[5,6] + 30.15 y[5,7] + 49.16 y[5,8] + 56.14 y[5,9]
   + 30.46 y[5,10] + 62.68 y[6,0] + 18.68 y[6,1] + 3.61 y[6,2]
   + 34.18 y[6,3] + 60.96 y[6,5] + 42.95 y[6,8] + 44.94 y[6,9]
   + 59.23 y[6,10] + 25.3 y[7,0] + 29 y[7,4] + 30.15 y[7,5] + 62.13 y[7,8]
   + 35.85 y[7,10] + 45.12 y[8,0] + 45.8 y[8,1] + 45.61 y[8,2]
   + 67.8 y[8,3] + 41.05 y[8,4] + 49.16 y[8,5] + 42.95 y[8,6]
   + 62.13 y[8,7] + 7 y[8,9] + 26.4 y[8,10] + 51.97 y[9,0] + 50.25 y[9,1]
   + 47.93 y[9,2] + 45.34 y[9,4] + 56.14 y[9,5] + 44.94 y[9,6] + 7 y[9,8]
   + 32.25 y[9,10] + 23.77 y[10,0] + 53.34 y[10,1] + 60.67 y[10,2]
   + 18.11 y[10,4] + 30.46 y[10,5] + 59.23 y[10,6] + 35.85 y[10,7]
   + 26.4 y[10,8] + 32.25 y[10,9] + 4.998 r[0,1] + 6.277 r[0,2]
   + 6.407 r[0,3] + 3.189 r[0,4] + 0.781 r[0,5] + 6.268 r[0,6]
   + 2.53 r[0,7] + 4.512 r[0,8] + 5.197 r[0,9] + 2.377 r[0,10]
   + 4.998 r[1,0] + 1.655 r[1,2] + 2.202 r[1,3] + 4.653 r[1,5]
   + 1.868 r[1,6] + 4.58 r[1,8] + 5.025 r[1,9] + 5.334 r[1,10]
   + 6.277 r[2,0] + 1.655 r[2,1] + 3.068 r[2,3] + 6.061 r[2,5]
   + 0.361 r[2,6] + 4.561 r[2,8] + 4.793 r[2,9] + 6.067 r[2,10]
   + 6.407 r[3,0] + 2.202 r[3,1] + 3.068 r[3,2] + 5.855 r[3,5]
   + 3.418 r[3,6] + 6.78 r[3,8] + 3.189 r[4,0] + 3.97 r[4,5] + 2.9 r[4,7]
   + 4.105 r[4,8] + 4.534 r[4,9] + 1.811 r[4,10] + 0.781 r[5,0]
   + 4.653 r[5,1] + 6.061 r[5,2] + 5.855 r[5,3] + 3.97 r[5,4]
   + 6.096 r[5,6] + 3.015 r[5,7] + 4.916 r[5,8] + 5.614 r[5,9]
   + 3.046 r[5,10] + 6.268 r[6,0] + 1.868 r[6,1] + 0.361 r[6,2]
   + 3.418 r[6,3] + 6.096 r[6,5] + 4.295 r[6,8] + 4.494 r[6,9]
   + 5.923 r[6,10] + 2.53 r[7,0] + 2.9 r[7,4] + 3.015 r[7,5] + 6.213 r[7,8]
   + 3.585 r[7,10] + 4.512 r[8,0] + 4.58 r[8,1] + 4.561 r[8,2]
   + 6.78 r[8,3] + 4.105 r[8,4] + 4.916 r[8,5] + 4.295 r[8,6]
   + 6.213 r[8,7] + 0.7 r[8,9] + 2.64 r[8,10] + 5.197 r[9,0] + 5.025 r[9,1]
   + 4.793 r[9,2] + 4.534 r[9,4] + 5.614 r[9,5] + 4.494 r[9,6] + 0.7 r[9,8]
   + 3.225 r[9,10] + 2.377 r[10,0] + 5.334 r[10,1] + 6.067 r[10,2]
   + 1.811 r[10,4] + 3.046 r[10,5] + 5.923 r[10,6] + 3.585 r[10,7]
   + 2.64 r[10,8] + 3.225 r[10,9]
Subject To
 flow_cons_inner_nodes[0]: - y[0,1] - y[0,2] - y[0,3] - y[0,4] - y[0,5]
   - y[0,6] - y[0,7] - y[0,8] - y[0,9] - y[0,10] + y[1,0] + y[2,0] + y[3,0]
   + y[4,0] + y[5,0] + y[6,0] + y[7,0] + y[8,0] + y[9,0] + y[10,0] = 0
 flow_cons_inner_nodes[1]: y[0,1] - y[1,0] - y[1,2] - y[1,3] - y[1,5]
   - y[1,6] - y[1,8] - y[1,9] - y[1,10] + y[2,1] + y[3,1] + y[5,1] + y[6,1]
   + y[8,1] + y[9,1] + y[10,1] = 0
 flow_cons_inner_nodes[2]: y[0,2] + y[1,2] - y[2,0] - y[2,1] - y[2,3]
   - y[2,5] - y[2,6] - y[2,8] - y[2,9] - y[2,10] + y[3,2] + y[5,2] + y[6,2]
   + y[8,2] + y[9,2] + y[10,2] = 0
 flow_cons_inner_nodes[5]: y[0,5] + y[1,5] + y[2,5] + y[3,5] + y[4,5]
   - y[5,0] - y[5,1] - y[5,2] - y[5,3] - y[5,4] - y[5,6] - y[5,7] - y[5,8]
   - y[5,9] - y[5,10] + y[6,5] + y[7,5] + y[8,5] + y[9,5] + y[10,5] = 0
 flow_cons_inner_nodes[6]: y[0,6] + y[1,6] + y[2,6] + y[3,6] + y[5,6]
   - y[6,0] - y[6,1] - y[6,2] - y[6,3] - y[6,5] - y[6,8] - y[6,9] - y[6,10]
   + y[8,6] + y[9,6] + y[10,6] = 0
 flow_cons_inner_nodes[7]: y[0,7] + y[4,7] + y[5,7] - y[7,0] - y[7,4]
   - y[7,5] - y[7,8] - y[7,10] + y[8,7] + y[10,7] = 0
 flow_cons_inner_nodes[8]: y[0,8] + y[1,8] + y[2,8] + y[3,8] + y[4,8]
   + y[5,8] + y[6,8] + y[7,8] - y[8,0] - y[8,1] - y[8,2] - y[8,3] - y[8,4]
   - y[8,5] - y[8,6] - y[8,7] - y[8,9] - y[8,10] + y[9,8] + y[10,8] = 0
 flow_cons_inner_nodes[9]: y[0,9] + y[1,9] + y[2,9] + y[4,9] + y[5,9]
   + y[6,9] + y[8,9] - y[9,0] - y[9,1] - y[9,2] - y[9,4] - y[9,5] - y[9,6]
   - y[9,8] - y[9,10] + y[10,9] = 0
 flow_cons_inner_nodes[10]: y[0,10] + y[1,10] + y[2,10] + y[4,10] + y[5,10]
   + y[6,10] + y[7,10] + y[8,10] + y[9,10] - y[10,0] - y[10,1] - y[10,2]
   - y[10,4] - y[10,5] - y[10,6] - y[10,7] - y[10,8] - y[10,9] = 0
 flow_cons_source: - y[0,3] - y[1,3] - y[2,3] + y[3,0] + y[3,1] + y[3,2]
   + y[3,5] + y[3,6] + y[3,8] - y[5,3] - y[6,3] - y[8,3] = 1
 flow_cons_target: y[0,4] - y[4,0] - y[4,5] - y[4,7] - y[4,8] - y[4,9]
   - y[4,10] + y[5,4] + y[7,4] + y[8,4] + y[9,4] + y[10,4] = 1
 primal_lower: - 2.37 y[0,1] - 1.09 y[0,2] - 1.23 y[0,3] - 1.9 y[0,4]
   - 1.81 y[0,5] - 4.78 y[0,6] - 1.96 y[0,7] - 3.7 y[0,8] - 3.65 y[0,9]
   - 1.49 y[0,10] - 1.66 y[1,0] - 1.69 y[1,2] - 0.7 y[1,3] - 4.66 y[1,5]
   - 4.36 y[1,6] - 2.69 y[1,8] - 1.5 y[1,9] - 4.26 y[1,10] - 3.23 y[2,0]
   - 1.88 y[2,1] - 2.43 y[2,3] - 2.51 y[2,5] - 4.45 y[2,6] - 2.74 y[2,8]
   - 3.2 y[2,9] - 0.25 y[2,10] - 1.57 y[3,0] - 0.27 y[3,1] - 0.86 y[3,2]
   - 4.44 y[3,5] - 4.5 y[3,6] - 3.42 y[3,8] - 3.51 y[4,0] - 2.21 y[4,5]
   - 4.47 y[4,7] - 1.95 y[4,8] - 3.28 y[4,9] - 3.12 y[4,10] - 2.87 y[5,0]
   - 1.06 y[5,1] - 3.27 y[5,2] - 4.21 y[5,3] - 3.82 y[5,4] - 2.07 y[5,6]
   - 4.4 y[5,7] - 3.75 y[5,8] - 3.48 y[5,9] - 0.6 y[5,10] - 4.39 y[6,0]
   - 1.86 y[6,1] - 1.41 y[6,2] - 2.96 y[6,3] - 2.24 y[6,5] - 1.22 y[6,8]
   - 4.02 y[6,9] - 0.86 y[6,10] - 1.09 y[7,0] - 3.16 y[7,4] - 2.3 y[7,5]
   - 0.35 y[7,8] - 0.67 y[7,10] - 0.54 y[8,0] - 2.29 y[8,1] - 2.59 y[8,2]
   - 4.59 y[8,3] - 2.8 y[8,4] - 2.53 y[8,5] - 4.42 y[8,6] - 4.41 y[8,7]
   - 1.21 y[8,9] - 3.27 y[8,10] - 4.62 y[9,0] - 1.09 y[9,1] - 3.43 y[9,2]
   - 3.83 y[9,4] - 4.49 y[9,5] - 4.09 y[9,6] - 2.02 y[9,8] - 0.03 y[9,10]
   - 0.17 y[10,0] - 0.07 y[10,1] - 2.82 y[10,2] - 1.84 y[10,4]
   - 0.55 y[10,5] - 4.15 y[10,6] - 3.94 y[10,7] - 3.54 y[10,8]
   - 4.03 y[10,9] + 88 u[0,1] + 86 u[0,2] + 100 u[0,3] + 35 u[0,4]
   + 74 u[0,5] + 76 u[0,6] + 79 u[0,7] + 36 u[0,8] + 76 u[0,9] + 78 u[0,10]
   + 50 u[1,0] + u[1,2] + 89 u[1,3] + 14 u[1,5] + 60 u[1,6] + 36 u[1,8]
   + 89 u[1,9] + 79 u[1,10] + 14 u[2,0] + 15 u[2,1] + 12 u[2,3] + 19 u[2,5]
   + 43 u[2,6] + 11 u[2,8] + 76 u[2,9] + 47 u[2,10] + 96 u[3,0] + 10 u[3,1]
   + 5 u[3,2] + 15 u[3,5] + 45 u[3,6] + 28 u[3,8] + 65 u[4,0] + 86 u[4,5]
   + 68 u[4,7] + 10 u[4,8] + 29 u[4,9] + 83 u[4,10] + 18 u[5,0] + 6 u[5,1]
   + 37 u[5,2] + 82 u[5,3] + 84 u[5,4] + 95 u[5,6] + 12 u[5,7] + 68 u[5,8]
   + 75 u[5,9] + 16 u[5,10] + 13 u[6,0] + 69 u[6,1] + 28 u[6,2] + 55 u[6,3]
   + 98 u[6,5] + 52 u[6,8] + 32 u[6,9] + 36 u[6,10] + 26 u[7,0] + 50 u[7,4]
   + 47 u[7,5] + 21 u[7,8] + 58 u[7,10] + 37 u[8,0] + 88 u[8,1] + 20 u[8,2]
   + 88 u[8,3] + 88 u[8,4] + 9 u[8,5] + 35 u[8,6] + 56 u[8,7] + 36 u[8,9]
   + 37 u[8,10] + 85 u[9,0] + 88 u[9,1] + 81 u[9,2] + 89 u[9,4] + 31 u[9,5]
   + 16 u[9,6] + 71 u[9,8] + 91 u[9,10] + 76 u[10,0] + 67 u[10,1]
   + 76 u[10,2] + 90 u[10,4] + 94 u[10,5] + 26 u[10,6] + 58 u[10,7]
   + 94 u[10,8] + 23 u[10,9] <= 422
 mccormick1[0,1]: - u[0,1] + r[0,1] <= 0
 mccormick1[0,2]: - u[0,2] + r[0,2] <= 0
 mccormick1[0,3]: - u[0,3] + r[0,3] <= 0
 mccormick1[0,4]: - u[0,4] + r[0,4] <= 0
 mccormick1[0,5]: - u[0,5] + r[0,5] <= 0
 mccormick1[0,6]: - u[0,6] + r[0,6] <= 0
 mccormick1[0,7]: - u[0,7] + r[0,7] <= 0
 mccormick1[0,8]: - u[0,8] + r[0,8] <= 0
 mccormick1[0,9]: - u[0,9] + r[0,9] <= 0
 mccormick1[0,10]: - u[0,10] + r[0,10] <= 0
 mccormick1[1,0]: - u[1,0] + r[1,0] <= 0
 mccormick1[1,2]: - u[1,2] + r[1,2] <= 0
 mccormick1[1,3]: - u[1,3] + r[1,3] <= 0
 mccormick1[1,5]: - u[1,5] + r[1,5] <= 0
 mccormick1[1,6]: - u[1,6] + r[1,6] <= 0
 mccormick1[1,8]: - u[1,8] + r[1,8] <= 0
 mccormick1[1,9]: - u[1,9] + r[1,9] <= 0
 mccormick1[1,10]: - u[1,10] + r[1,10] <= 0
 mccormick1[2,0]: - u[2,0] + r[2,0] <= 0
 mccormick1[2,1]: - u[2,1] + r[2,1] <= 0
 mccormick1[2,3]: - u[2,3] + r[2,3] <= 0
 mccormick1[2,5]: - u[2,5] + r[2,5] <= 0
 mccormick1[2,6]: - u[2,6] + r[2,6] <= 0
 mccormick1[2,8]: - u[2,8] + r[2,8] <= 0
 mccormick1[2,9]: - u[2,9] + r[2,9] <= 0
 mccormick1[2,10]: - u[2,10] + r[2,10] <= 0
 mccormick1[3,0]: - u[3,0] + r[3,0] <= 0
 mccormick1[3,1]: - u[3,1] + r[3,1] <= 0
 mccormick1[3,2]: - u[3,2] + r[3,2] <= 0
 mccormick1[3,5]: - u[3,5] + r[3,5] <= 0
 mccormick1[3,6]: - u[3,6] + r[3,6] <= 0
 mccormick1[3,8]: - u[3,8] + r[3,8] <= 0
 mccormick1[4,0]: - u[4,0] + r[4,0] <= 0
 mccormick1[4,5]: - u[4,5] + r[4,5] <= 0
 mccormick1[4,7]: - u[4,7] + r[4,7] <= 0
 mccormick1[4,8]: - u[4,8] + r[4,8] <= 0
 mccormick1[4,9]: - u[4,9] + r[4,9] <= 0
 mccormick1[4,10]: - u[4,10] + r[4,10] <= 0
 mccormick1[5,0]: - u[5,0] + r[5,0] <= 0
 mccormick1[5,1]: - u[5,1] + r[5,1] <= 0
 mccormick1[5,2]: - u[5,2] + r[5,2] <= 0
 mccormick1[5,3]: - u[5,3] + r[5,3] <= 0
 mccormick1[5,4]: - u[5,4] + r[5,4] <= 0
 mccormick1[5,6]: - u[5,6] + r[5,6] <= 0
 mccormick1[5,7]: - u[5,7] + r[5,7] <= 0
 mccormick1[5,8]: - u[5,8] + r[5,8] <= 0
 mccormick1[5,9]: - u[5,9] + r[5,9] <= 0
 mccormick1[5,10]: - u[5,10] + r[5,10] <= 0
 mccormick1[6,0]: - u[6,0] + r[6,0] <= 0
 mccormick1[6,1]: - u[6,1] + r[6,1] <= 0
 mccormick1[6,2]: - u[6,2] + r[6,2] <= 0
 mccormick1[6,3]: - u[6,3] + r[6,3] <= 0
 mccormick1[6,5]: - u[6,5] + r[6,5] <= 0
 mccormick1[6,8]: - u[6,8] + r[6,8] <= 0
 mccormick1[6,9]: - u[6,9] + r[6,9] <= 0
 mccormick1[6,10]: - u[6,10] + r[6,10] <= 0
 mccormick1[7,0]: - u[7,0] + r[7,0] <= 0
 mccormick1[7,4]: - u[7,4] + r[7,4] <= 0
 mccormick1[7,5]: - u[7,5] + r[7,5] <= 0
 mccormick1[7,8]: - u[7,8] + r[7,8] <= 0
 mccormick1[7,10]: - u[7,10] + r[7,10] <= 0
 mccormick1[8,0]: - u[8,0] + r[8,0] <= 0
 mccormick1[8,1]: - u[8,1] + r[8,1] <= 0
 mccormick1[8,2]: - u[8,2] + r[8,2] <= 0
 mccormick1[8,3]: - u[8,3] + r[8,3] <= 0
 mccormick1[8,4]: - u[8,4] + r[8,4] <= 0
 mccormick1[8,5]: - u[8,5] + r[8,5] <= 0
 mccormick1[8,6]: - u[8,6] + r[8,6] <= 0
 mccormick1[8,7]: - u[8,7] + r[8,7] <= 0
 mccormick1[8,9]: - u[8,9] + r[8,9] <= 0
 mccormick1[8,10]: - u[8,10] + r[8,10] <= 0
 mccormick1[9,0]: - u[9,0] + r[9,0] <= 0
 mccormick1[9,1]: - u[9,1] + r[9,1] <= 0
 mccormick1[9,2]: - u[9,2] + r[9,2] <= 0
 mccormick1[9,4]: - u[9,4] + r[9,4] <= 0
 mccormick1[9,5]: - u[9,5] + r[9,5] <= 0
 mccormick1[9,6]: - u[9,6] + r[9,6] <= 0
 mccormick1[9,8]: - u[9,8] + r[9,8] <= 0
 mccormick1[9,10]: - u[9,10] + r[9,10] <= 0
 mccormick1[10,0]: - u[10,0] + r[10,0] <= 0
 mccormick1[10,1]: - u[10,1] + r[10,1] <= 0
 mccormick1[10,2]: - u[10,2] + r[10,2] <= 0
 mccormick1[10,4]: - u[10,4] + r[10,4] <= 0
 mccormick1[10,5]: - u[10,5] + r[10,5] <= 0
 mccormick1[10,6]: - u[10,6] + r[10,6] <= 0
 mccormick1[10,7]: - u[10,7] + r[10,7] <= 0
 mccormick1[10,8]: - u[10,8] + r[10,8] <= 0
 mccormick1[10,9]: - u[10,9] + r[10,9] <= 0
 mccormick2[0,1]: - y[0,1] + r[0,1] <= 0
 mccormick2[0,2]: - y[0,2] + r[0,2] <= 0
 mccormick2[0,3]: - y[0,3] + r[0,3] <= 0
 mccormick2[0,4]: - y[0,4] + r[0,4] <= 0
 mccormick2[0,5]: - y[0,5] + r[0,5] <= 0
 mccormick2[0,6]: - y[0,6] + r[0,6] <= 0
 mccormick2[0,7]: - y[0,7] + r[0,7] <= 0
 mccormick2[0,8]: - y[0,8] + r[0,8] <= 0
 mccormick2[0,9]: - y[0,9] + r[0,9] <= 0
 mccormick2[0,10]: - y[0,10] + r[0,10] <= 0
 mccormick2[1,0]: - y[1,0] + r[1,0] <= 0
 mccormick2[1,2]: - y[1,2] + r[1,2] <= 0
 mccormick2[1,3]: - y[1,3] + r[1,3] <= 0
 mccormick2[1,5]: - y[1,5] + r[1,5] <= 0
 mccormick2[1,6]: - y[1,6] + r[1,6] <= 0
 mccormick2[1,8]: - y[1,8] + r[1,8] <= 0
 mccormick2[1,9]: - y[1,9] + r[1,9] <= 0
 mccormick2[1,10]: - y[1,10] + r[1,10] <= 0
 mccormick2[2,0]: - y[2,0] + r[2,0] <= 0
 mccormick2[2,1]: - y[2,1] + r[2,1] <= 0
 mccormick2[2,3]: - y[2,3] + r[2,3] <= 0
 mccormick2[2,5]: - y[2,5] + r[2,5] <= 0
 mccormick2[2,6]: - y[2,6] + r[2,6] <= 0
 mccormick2[2,8]: - y[2,8] + r[2,8] <= 0
 mccormick2[2,9]: - y[2,9] + r[2,9] <= 0
 mccormick2[2,10]: - y[2,10] + r[2,10] <= 0
 mccormick2[3,0]: - y[3,0] + r[3,0] <= 0
 mccormick2[3,1]: - y[3,1] + r[3,1] <= 0
 mccormick2[3,2]: - y[3,2] + r[3,2] <= 0
 mccormick2[3,5]: - y[3,5] + r[3,5] <= 0
 mccormick2[3,6]: - y[3,6] + r[3,6] <= 0
 mccormick2[3,8]: - y[3,8] + r[3,8] <= 0
 mccormick2[4,0]: - y[4,0] + r[4,0] <= 0
 mccormick2[4,5]: - y[4,5] + r[4,5] <= 0
 mccormick2[4,7]: - y[4,7] + r[4,7] <= 0
 mccormick2[4,8]: - y[4,8] + r[4,8] <= 0
 mccormick2[4,9]: - y[4,9] + r[4,9] <= 0
 mccormick2[4,10]: - y[4,10] + r[4,10] <= 0
 mccormick2[5,0]: - y[5,0] + r[5,0] <= 0
 mccormick2[5,1]: - y[5,1] + r[5,1] <= 0
 mccormick2[5,2]: - y[5,2] + r[5,2] <= 0
 mccormick2[5,3]: - y[5,3] + r[5,3] <= 0
 mccormick2[5,4]: - y[5,4] + r[5,4] <= 0
 mccormick2[5,6]: - y[5,6] + r[5,6] <= 0
 mccormick2[5,7]: - y[5,7] + r[5,7] <= 0
 mccormick2[5,8]: - y[5,8] + r[5,8] <= 0
 mccormick2[5,9]: - y[5,9] + r[5,9] <= 0
 mccormick2[5,10]: - y[5,10] + r[5,10] <= 0
 mccormick2[6,0]: - y[6,0] + r[6,0] <= 0
 mccormick2[6,1]: - y[6,1] + r[6,1] <= 0
 mccormick2[6,2]: - y[6,2] + r[6,2] <= 0
 mccormick2[6,3]: - y[6,3] + r[6,3] <= 0
 mccormick2[6,5]: - y[6,5] + r[6,5] <= 0
 mccormick2[6,8]: - y[6,8] + r[6,8] <= 0
 mccormick2[6,9]: - y[6,9] + r[6,9] <= 0
 mccormick2[6,10]: - y[6,10] + r[6,10] <= 0
 mccormick2[7,0]: - y[7,0] + r[7,0] <= 0
 mccormick2[7,4]: - y[7,4] + r[7,4] <= 0
 mccormick2[7,5]: - y[7,5] + r[7,5] <= 0
 mccormick2[7,8]: - y[7,8] + r[7,8] <= 0
 mccormick2[7,10]: - y[7,10] + r[7,10] <= 0
 mccormick2[8,0]: - y[8,0] + r[8,0] <= 0
 mccormick2[8,1]: - y[8,1] + r[8,1] <= 0
 mccormick2[8,2]: - y[8,2] + r[8,2] <= 0
 mccormick2[8,3]: - y[8,3] + r[8,3] <= 0
 mccormick2[8,4]: - y[8,4] + r[8,4] <= 0
 mccormick2[8,5]: - y[8,5] + r[8,5] <= 0
 mccormick2[8,6]: - y[8,6] + r[8,6] <= 0
 mccormick2[8,7]: - y[8,7] + r[8,7] <= 0
 mccormick2[8,9]: - y[8,9] + r[8,9] <= 0
 mccormick2[8,10]: - y[8,10] + r[8,10] <= 0
 mccormick2[9,0]: - y[9,0] + r[9,0] <= 0
 mccormick2[9,1]: - y[9,1] + r[9,1] <= 0
 mccormick2[9,2]: - y[9,2] + r[9,2] <= 0
 mccormick2[9,4]: - y[9,4] + r[9,4] <= 0
 mccormick2[9,5]: - y[9,5] + r[9,5] <= 0
 mccormick2[9,6]: - y[9,6] + r[9,6] <= 0
 mccormick2[9,8]: - y[9,8] + r[9,8] <= 0
 mccormick2[9,10]: - y[9,10] + r[9,10] <= 0
 mccormick2[10,0]: - y[10,0] + r[10,0] <= 0
 mccormick2[10,1]: - y[10,1] + r[10,1] <= 0
 mccormick2[10,2]: - y[10,2] + r[10,2] <= 0
 mccormick2[10,4]: - y[10,4] + r[10,4] <= 0
 mccormick2[10,5]: - y[10,5] + r[10,5] <= 0
 mccormick2[10,6]: - y[10,6] + r[10,6] <= 0
 mccormick2[10,7]: - y[10,7] + r[10,7] <= 0
 mccormick2[10,8]: - y[10,8] + r[10,8] <= 0
 mccormick2[10,9]: - y[10,9] + r[10,9] <= 0
 mccormick3[0,1]: - y[0,1] - u[0,1] + r[0,1] >= -1
 mccormick3[0,2]: - y[0,2] - u[0,2] + r[0,2] >= -1
 mccormick3[0,3]: - y[0,3] - u[0,3] + r[0,3] >= -1
 mccormick3[0,4]: - y[0,4] - u[0,4] + r[0,4] >= -1
 mccormick3[0,5]: - y[0,5] - u[0,5] + r[0,5] >= -1
 mccormick3[0,6]: - y[0,6] - u[0,6] + r[0,6] >= -1
 mccormick3[0,7]: - y[0,7] - u[0,7] + r[0,7] >= -1
 mccormick3[0,8]: - y[0,8] - u[0,8] + r[0,8] >= -1
 mccormick3[0,9]: - y[0,9] - u[0,9] + r[0,9] >= -1
 mccormick3[0,10]: - y[0,10] - u[0,10] + r[0,10] >= -1
 mccormick3[1,0]: - y[1,0] - u[1,0] + r[1,0] >= -1
 mccormick3[1,2]: - y[1,2] - u[1,2] + r[1,2] >= -1
 mccormick3[1,3]: - y[1,3] - u[1,3] + r[1,3] >= -1
 mccormick3[1,5]: - y[1,5] - u[1,5] + r[1,5] >= -1
 mccormick3[1,6]: - y[1,6] - u[1,6] + r[1,6] >= -1
 mccormick3[1,8]: - y[1,8] - u[1,8] + r[1,8] >= -1
 mccormick3[1,9]: - y[1,9] - u[1,9] + r[1,9] >= -1
 mccormick3[1,10]: - y[1,10] - u[1,10] + r[1,10] >= -1
 mccormick3[2,0]: - y[2,0] - u[2,0] + r[2,0] >= -1
 mccormick3[2,1]: - y[2,1] - u[2,1] + r[2,1] >= -1
 mccormick3[2,3]: - y[2,3] - u[2,3] + r[2,3] >= -1
 mccormick3[2,5]: - y[2,5] - u[2,5] + r[2,5] >= -1
 mccormick3[2,6]: - y[2,6] - u[2,6] + r[2,6] >= -1
 mccormick3[2,8]: - y[2,8] - u[2,8] + r[2,8] >= -1
 mccormick3[2,9]: - y[2,9] - u[2,9] + r[2,9] >= -1
 mccormick3[2,10]: - y[2,10] - u[2,10] + r[2,10] >= -1
 mccormick3[3,0]: - y[3,0] - u[3,0] + r[3,0] >= -1
 mccormick3[3,1]: - y[3,1] - u[3,1] + r[3,1] >= -1
 mccormick3[3,2]: - y[3,2] - u[3,2] + r[3,2] >= -1
 mccormick3[3,5]: - y[3,5] - u[3,5] + r[3,5] >= -1
 mccormick3[3,6]: - y[3,6] - u[3,6] + r[3,6] >= -1
 mccormick3[3,8]: - y[3,8] - u[3,8] + r[3,8] >= -1
 mccormick3[4,0]: - y[4,0] - u[4,0] + r[4,0] >= -1
 mccormick3[4,5]: - y[4,5] - u[4,5] + r[4,5] >= -1
 mccormick3[4,7]: - y[4,7] - u[4,7] + r[4,7] >= -1
 mccormick3[4,8]: - y[4,8] - u[4,8] + r[4,8] >= -1
 mccormick3[4,9]: - y[4,9] - u[4,9] + r[4,9] >= -1
 mccormick3[4,10]: - y[4,10] - u[4,10] + r[4,10] >= -1
 mccormick3[5,0]: - y[5,0] - u[5,0] + r[5,0] >= -1
 mccormick3[5,1]: - y[5,1] - u[5,1] + r[5,1] >= -1
 mccormick3[5,2]: - y[5,2] - u[5,2] + r[5,2] >= -1
 mccormick3[5,3]: - y[5,3] - u[5,3] + r[5,3] >= -1
 mccormick3[5,4]: - y[5,4] - u[5,4] + r[5,4] >= -1
 mccormick3[5,6]: - y[5,6] - u[5,6] + r[5,6] >= -1
 mccormick3[5,7]: - y[5,7] - u[5,7] + r[5,7] >= -1
 mccormick3[5,8]: - y[5,8] - u[5,8] + r[5,8] >= -1
 mccormick3[5,9]: - y[5,9] - u[5,9] + r[5,9] >= -1
 mccormick3[5,10]: - y[5,10] - u[5,10] + r[5,10] >= -1
 mccormick3[6,0]: - y[6,0] - u[6,0] + r[6,0] >= -1
 mccormick3[6,1]: - y[6,1] - u[6,1] + r[6,1] >= -1
 mccormick3[6,2]: - y[6,2] - u[6,2] + r[6,2] >= -1
 mccormick3[6,3]: - y[6,3] - u[6,3] + r[6,3] >= -1
 mccormick3[6,5]: - y[6,5] - u[6,5] + r[6,5] >= -1
 mccormick3[6,8]: - y[6,8] - u[6,8] + r[6,8] >= -1
 mccormick3[6,9]: - y[6,9] - u[6,9] + r[6,9] >= -1
 mccormick3[6,10]: - y[6,10] - u[6,10] + r[6,10] >= -1
 mccormick3[7,0]: - y[7,0] - u[7,0] + r[7,0] >= -1
 mccormick3[7,4]: - y[7,4] - u[7,4] + r[7,4] >= -1
 mccormick3[7,5]: - y[7,5] - u[7,5] + r[7,5] >= -1
 mccormick3[7,8]: - y[7,8] - u[7,8] + r[7,8] >= -1
 mccormick3[7,10]: - y[7,10] - u[7,10] + r[7,10] >= -1
 mccormick3[8,0]: - y[8,0] - u[8,0] + r[8,0] >= -1
 mccormick3[8,1]: - y[8,1] - u[8,1] + r[8,1] >= -1
 mccormick3[8,2]: - y[8,2] - u[8,2] + r[8,2] >= -1
 mccormick3[8,3]: - y[8,3] - u[8,3] + r[8,3] >= -1
 mccormick3[8,4]: - y[8,4] - u[8,4] + r[8,4] >= -1
 mccormick3[8,5]: - y[8,5] - u[8,5] + r[8,5] >= -1
 mccormick3[8,6]: - y[8,6] - u[8,6] + r[8,6] >= -1
 mccormick3[8,7]: - y[8,7] - u[8,7] + r[8,7] >= -1
 mccormick3[8,9]: - y[8,9] - u[8,9] + r[8,9] >= -1
 mccormick3[8,10]: - y[8,10] - u[8,10] + r[8,10] >= -1
 mccormick3[9,0]: - y[9,0] - u[9,0] + r[9,0] >= -1
 mccormick3[9,1]: - y[9,1] - u[9,1] + r[9,1] >= -1
 mccormick3[9,2]: - y[9,2] - u[9,2] + r[9,2] >= -1
 mccormick3[9,4]: - y[9,4] - u[9,4] + r[9,4] >= -1
 mccormick3[9,5]: - y[9,5] - u[9,5] + r[9,5] >= -1
 mccormick3[9,6]: - y[9,6] - u[9,6] + r[9,6] >= -1
 mccormick3[9,8]: - y[9,8] - u[9,8] + r[9,8] >= -1
 mccormick3[9,10]: - y[9,10] - u[9,10] + r[9,10] >= -1
 mccormick3[10,0]: - y[10,0] - u[10,0] + r[10,0] >= -1
 mccormick3[10,1]: - y[10,1] - u[10,1] + r[10,1] >= -1
 mccormick3[10,2]: - y[10,2] - u[10,2] + r[10,2] >= -1
 mccormick3[10,4]: - y[10,4] - u[10,4] + r[10,4] >= -1
 mccormick3[10,5]: - y[10,5] - u[10,5] + r[10,5] >= -1
 mccormick3[10,6]: - y[10,6] - u[10,6] + r[10,6] >= -1
 mccormick3[10,7]: - y[10,7] - u[10,7] + r[10,7] >= -1
 mccormick3[10,8]: - y[10,8] - u[10,8] + r[10,8] >= -1
 mccormick3[10,9]: - y[10,9] - u[10,9] + r[10,9] >= -1
Bounds
Binaries
 y[0,1] y[0,2] y[0,3] y[0,4] y[0,5] y[0,6] y[0,7] y[0,8] y[0,9] y[0,10]
 y[1,0] y[1,2] y[1,3] y[1,5] y[1,6] y[1,8] y[1,9] y[1,10] y[2,0] y[2,1]
 y[2,3] y[2,5] y[2,6] y[2,8] y[2,9] y[2,10] y[3,0] y[3,1] y[3,2] y[3,5]
 y[3,6] y[3,8] y[4,0] y[4,5] y[4,7] y[4,8] y[4,9] y[4,10] y[5,0] y[5,1]
 y[5,2] y[5,3] y[5,4] y[5,6] y[5,7] y[5,8] y[5,9] y[5,10] y[6,0] y[6,1]
 y[6,2] y[6,3] y[6,5] y[6,8] y[6,9] y[6,10] y[7,0] y[7,4] y[7,5] y[7,8]
 y[7,10] y[8,0] y[8,1] y[8,2] y[8,3] y[8,4] y[8,5] y[8,6] y[8,7] y[8,9]
 y[8,10] y[9,0] y[9,1] y[9,2] y[9,4] y[9,5] y[9,6] y[9,8] y[9,10] y[10,0]
 y[10,1] y[10,2] y[10,4] y[10,5] y[10,6] y[10,7] y[10,8] y[10,9] u[0,1]
 u[0,2] u[0,3] u[0,4] u[0,5] u[0,6] u[0,7] u[0,8] u[0,9] u[0,10] u[1,0]
 u[1,2] u[1,3] u[1,5] u[1,6] u[1,8] u[1,9] u[1,10] u[2,0] u[2,1] u[2,3]
 u[2,5] u[2,6] u[2,8] u[2,9] u[2,10] u[3,0] u[3,1] u[3,2] u[3,5] u[3,6]
 u[3,8] u[4,0] u[4,5] u[4,7] u[4,8] u[4,9] u[4,10] u[5,0] u[5,1] u[5,2]
 u[5,3] u[5,4] u[5,6] u[5,7] u[5,8] u[5,9] u[5,10] u[6,0] u[6,1] u[6,2]
 u[6,3] u[6,5] u[6,8] u[6,9] u[6,10] u[7,0] u[7,4] u[7,5] u[7,8] u[7,10]
 u[8,0] u[8,1] u[8,2] u[8,3] u[8,4] u[8,5] u[8,6] u[8,7] u[8,9] u[8,10]
 u[9,0] u[9,1] u[9,2] u[9,4] u[9,5] u[9,6] u[9,8] u[9,10] u[10,0] u[10,1]
 u[10,2] u[10,4] u[10,5] u[10,6] u[10,7] u[10,8] u[10,9] r[0,1] r[0,2]
 r[0,3] r[0,4] r[0,5] r[0,6] r[0,7] r[0,8] r[0,9] r[0,10] r[1,0] r[1,2]
 r[1,3] r[1,5] r[1,6] r[1,8] r[1,9] r[1,10] r[2,0] r[2,1] r[2,3] r[2,5]
 r[2,6] r[2,8] r[2,9] r[2,10] r[3,0] r[3,1] r[3,2] r[3,5] r[3,6] r[3,8]
 r[4,0] r[4,5] r[4,7] r[4,8] r[4,9] r[4,10] r[5,0] r[5,1] r[5,2] r[5,3]
 r[5,4] r[5,6] r[5,7] r[5,8] r[5,9] r[5,10] r[6,0] r[6,1] r[6,2] r[6,3]
 r[6,5] r[6,8] r[6,9] r[6,10] r[7,0] r[7,4] r[7,5] r[7,8] r[7,10] r[8,0]
 r[8,1] r[8,2] r[8,3] r[8,4] r[8,5] r[8,6] r[8,7] r[8,9] r[8,10] r[9,0]
 r[9,1] r[9,2] r[9,4] r[9,5] r[9,6] r[9,8] r[9,10] r[10,0] r[10,1] r[10,2]
 r[10,4] r[10,5] r[10,6] r[10,7] r[10,8] r[10,9]
End
